; DUP1 SWAP3 POP SWAP3 POP POP => SWAP3 LT EQ POP DUP1
(set-option :produce-proofs true)
; 
(set-info :status unknown)
(declare-fun storage_t ((_ BitVec 256) (_ BitVec 256) (_ BitVec 256) (_ BitVec 256) Int (_ BitVec 256)) (_ BitVec 256))
(declare-fun storage_s ((_ BitVec 256) (_ BitVec 256) (_ BitVec 256) (_ BitVec 256) Int (_ BitVec 256)) (_ BitVec 256))
(declare-fun exc_halt_t (Int) Bool)
(declare-fun exc_halt_s (Int) Bool)
(declare-fun stack_t ((_ BitVec 256) (_ BitVec 256) (_ BitVec 256) (_ BitVec 256) Int (_ BitVec 6)) (_ BitVec 256))
(declare-fun stack_s ((_ BitVec 256) (_ BitVec 256) (_ BitVec 256) (_ BitVec 256) Int (_ BitVec 6)) (_ BitVec 256))
(declare-fun sc_t (Int) (_ BitVec 6))
(declare-fun sc_s (Int) (_ BitVec 6))
(declare-fun used_gas_t ((_ BitVec 256) (_ BitVec 256) (_ BitVec 256) (_ BitVec 256) Int) Int)
(declare-fun used_gas_s ((_ BitVec 256) (_ BitVec 256) (_ BitVec 256) (_ BitVec 256) Int) Int)
(assert
 (exists ((x_0 (_ BitVec 256)) (x_1 (_ BitVec 256)) (x_2 (_ BitVec 256)) (x_3 (_ BitVec 256)) )(let (($x593 (forall ((w (_ BitVec 256)) )(let ((?x7485 (storage_t x_0 x_1 x_2 x_3 5 w)))
 (let ((?x7808 (storage_s x_0 x_1 x_2 x_3 6 w)))
 (= ?x7808 ?x7485))))
 ))
 (let (($x886 (exc_halt_t 5)))
 (let (($x772 (exc_halt_s 6)))
 (let (($x889 (= $x772 $x886)))
 (let (($x1515 (forall ((n (_ BitVec 6)) )(let ((?x7296 (stack_t x_0 x_1 x_2 x_3 5 n)))
 (let ((?x10419 (stack_s x_0 x_1 x_2 x_3 6 n)))
 (let (($x8048 (= ?x10419 ?x7296)))
 (or (bvsle (sc_t 5) n) $x8048)))))
 ))
 (let ((?x919 (sc_t 5)))
 (let ((?x926 (sc_s 6)))
 (let (($x929 (= ?x926 ?x919)))
 (let ((?x6644 (used_gas_t x_0 x_1 x_2 x_3 0)))
 (let ((?x905 (used_gas_s x_0 x_1 x_2 x_3 0)))
 (let (($x7473 (= ?x905 ?x6644)))
 (let (($x5773 (forall ((w (_ BitVec 256)) )(let ((?x119 (storage_t x_0 x_1 x_2 x_3 0 w)))
 (let ((?x9707 (storage_s x_0 x_1 x_2 x_3 0 w)))
 (= ?x9707 ?x119))))
 ))
 (let (($x56 (exc_halt_t 0)))
 (let (($x57 (exc_halt_s 0)))
 (let (($x58 (= $x57 $x56)))
 (let (($x1782 (forall ((n (_ BitVec 6)) )(let ((?x63 (sc_t 0)))
 (let (($x10077 (bvsle ?x63 n)))
 (let ((?x6964 (stack_t x_0 x_1 x_2 x_3 0 n)))
 (let ((?x8572 (stack_s x_0 x_1 x_2 x_3 0 n)))
 (let (($x282 (= ?x8572 ?x6964)))
 (or $x282 $x10077)))))))
 ))
 (let ((?x63 (sc_t 0)))
 (let ((?x72 (sc_s 0)))
 (let (($x73 (= ?x72 ?x63)))
 (let (($x3723 (exc_halt_t 4)))
 (let (($x755 (or $x3723 (not (bvsle (_ bv0 6) (bvadd (_ bv63 6) (sc_t 4)))) (not (= ((_ extract 6 6) (bvadd (_ bv1 7) (concat (_ bv0 1) (sc_t 4)))) (_ bv0 1))))))
 (let (($x7445 (forall ((w (_ BitVec 256)) )(let ((?x9131 (storage_t x_0 x_1 x_2 x_3 4 w)))
 (let ((?x7485 (storage_t x_0 x_1 x_2 x_3 5 w)))
 (= ?x7485 ?x9131))))
 ))
 (let (($x1551 (forall ((n (_ BitVec 6)) )(let ((?x8900 (stack_t x_0 x_1 x_2 x_3 4 n)))
 (let ((?x7296 (stack_t x_0 x_1 x_2 x_3 5 n)))
 (or (= ?x7296 ?x8900) (bvsle (bvadd (_ bv63 6) (sc_t 4)) n)))))
 ))
 (let (($x6494 (= (used_gas_t x_0 x_1 x_2 x_3 5) (+ 3 (used_gas_t x_0 x_1 x_2 x_3 4)))))
 (let ((?x3757 (sc_t 4)))
 (let ((?x4637 (bvadd (_ bv63 6) ?x3757)))
 (let ((?x7493 (stack_t x_0 x_1 x_2 x_3 4 ?x4637)))
 (let (($x10208 (= $x3723 (or (exc_halt_t 3) (not (bvsle (_ bv0 6) (bvadd (_ bv63 6) (sc_t 3))))))))
 (let (($x5613 (forall ((w (_ BitVec 256)) )(let ((?x8140 (storage_t x_0 x_1 x_2 x_3 3 w)))
 (let ((?x9131 (storage_t x_0 x_1 x_2 x_3 4 w)))
 (= ?x9131 ?x8140))))
 ))
 (let (($x7405 (forall ((n (_ BitVec 6)) )(let ((?x3193 (stack_t x_0 x_1 x_2 x_3 3 n)))
 (let ((?x8900 (stack_t x_0 x_1 x_2 x_3 4 n)))
 (let ((?x3005 (sc_t 3)))
 (let ((?x4707 (bvadd (_ bv63 6) ?x3005)))
 (let (($x1150 (bvsle ?x4707 n)))
 (or $x1150 (= ?x8900 ?x3193))))))))
 ))
 (let ((?x8880 (used_gas_t x_0 x_1 x_2 x_3 4)))
 (let (($x8325 (exc_halt_t 3)))
 (let (($x10178 (= $x8325 (or (exc_halt_t 2) (not (bvsle (_ bv0 6) (bvadd (_ bv62 6) (sc_t 2))))))))
 (let (($x1141 (forall ((w (_ BitVec 256)) )(let ((?x9922 (storage_t x_0 x_1 x_2 x_3 2 w)))
 (let ((?x8140 (storage_t x_0 x_1 x_2 x_3 3 w)))
 (= ?x8140 ?x9922))))
 ))
 (let (($x10388 (forall ((n (_ BitVec 6)) )(let ((?x1212 (stack_t x_0 x_1 x_2 x_3 2 n)))
 (let ((?x3193 (stack_t x_0 x_1 x_2 x_3 3 n)))
 (let ((?x4056 (sc_t 2)))
 (let ((?x5157 (bvadd (_ bv62 6) ?x4056)))
 (let (($x330 (bvsle ?x5157 n)))
 (or $x330 (= ?x3193 ?x1212))))))))
 ))
 (let ((?x2681 (used_gas_t x_0 x_1 x_2 x_3 3)))
 (let ((?x4056 (sc_t 2)))
 (let ((?x5207 (bvadd (_ bv63 6) ?x4056)))
 (let ((?x2978 (stack_t x_0 x_1 x_2 x_3 2 ?x5207)))
 (let ((?x8469 (ite (= ?x2978 (stack_t x_0 x_1 x_2 x_3 2 (bvadd (_ bv62 6) ?x4056))) (_ bv1 256) (_ bv0 256))))
 (let (($x9185 (= (stack_t x_0 x_1 x_2 x_3 3 (bvadd (_ bv63 6) (sc_t 3))) ?x8469)))
 (let (($x903 (exc_halt_t 2)))
 (let (($x3604 (= $x903 (or (exc_halt_t 1) (not (bvsle (_ bv0 6) (bvadd (_ bv62 6) (sc_t 1))))))))
 (let (($x4571 (forall ((w (_ BitVec 256)) )(let ((?x6752 (storage_t x_0 x_1 x_2 x_3 1 w)))
 (let ((?x9922 (storage_t x_0 x_1 x_2 x_3 2 w)))
 (= ?x9922 ?x6752))))
 ))
 (let (($x2446 (forall ((n (_ BitVec 6)) )(let ((?x10865 (stack_t x_0 x_1 x_2 x_3 1 n)))
 (let ((?x1212 (stack_t x_0 x_1 x_2 x_3 2 n)))
 (or (bvsle (bvadd (_ bv62 6) (sc_t 1)) n) (= ?x1212 ?x10865)))))
 ))
 (let ((?x9006 (used_gas_t x_0 x_1 x_2 x_3 2)))
 (let ((?x4023 (sc_t 1)))
 (let ((?x6175 (bvadd (_ bv63 6) ?x4023)))
 (let ((?x1559 (stack_t x_0 x_1 x_2 x_3 1 ?x6175)))
 (let ((?x8180 (bvadd (_ bv62 6) ?x4023)))
 (let ((?x30 (stack_t x_0 x_1 x_2 x_3 1 ?x8180)))
 (let (($x10014 (forall ((w (_ BitVec 256)) )(let ((?x119 (storage_t x_0 x_1 x_2 x_3 0 w)))
 (let ((?x6752 (storage_t x_0 x_1 x_2 x_3 1 w)))
 (= ?x6752 ?x119))))
 ))
 (let (($x9872 (forall ((n (_ BitVec 6)) )(let ((?x6964 (stack_t x_0 x_1 x_2 x_3 0 n)))
 (let ((?x10865 (stack_t x_0 x_1 x_2 x_3 1 n)))
 (or (bvsle (bvadd (_ bv60 6) (sc_t 0)) n) (= ?x10865 ?x6964)))))
 ))
 (let (($x9712 (= (stack_t x_0 x_1 x_2 x_3 1 (bvadd (_ bv61 6) ?x4023)) (stack_t x_0 x_1 x_2 x_3 0 (bvadd (_ bv61 6) ?x63)))))
 (let (($x7780 (= (stack_t x_0 x_1 x_2 x_3 1 (bvadd (_ bv60 6) ?x4023)) (stack_t x_0 x_1 x_2 x_3 0 (bvadd (_ bv63 6) ?x63)))))
 (let (($x10115 (= $x772 (or (exc_halt_s 5) (not (bvsle (_ bv0 6) (bvadd (_ bv63 6) (sc_s 5))))))))
 (let (($x9231 (forall ((w (_ BitVec 256)) )(let ((?x5828 (storage_s x_0 x_1 x_2 x_3 5 w)))
 (let ((?x7808 (storage_s x_0 x_1 x_2 x_3 6 w)))
 (= ?x7808 ?x5828))))
 ))
 (let (($x8488 (forall ((n (_ BitVec 6)) )(let ((?x7318 (stack_s x_0 x_1 x_2 x_3 5 n)))
 (let ((?x10419 (stack_s x_0 x_1 x_2 x_3 6 n)))
 (or (= ?x10419 ?x7318) (bvsle (bvadd (_ bv63 6) (sc_s 5)) n)))))
 ))
 (let (($x6242 (= (used_gas_s x_0 x_1 x_2 x_3 6) (+ 2 (used_gas_s x_0 x_1 x_2 x_3 5)))))
 (let (($x3979 (exc_halt_s 5)))
 (let (($x6362 (= $x3979 (or (exc_halt_s 4) (not (bvsle (_ bv0 6) (bvadd (_ bv63 6) (sc_s 4))))))))
 (let (($x9122 (forall ((w (_ BitVec 256)) )(let ((?x11267 (storage_s x_0 x_1 x_2 x_3 4 w)))
 (let ((?x5828 (storage_s x_0 x_1 x_2 x_3 5 w)))
 (= ?x5828 ?x11267))))
 ))
 (let (($x8193 (forall ((n (_ BitVec 6)) )(let ((?x5397 (stack_s x_0 x_1 x_2 x_3 4 n)))
 (let ((?x7318 (stack_s x_0 x_1 x_2 x_3 5 n)))
 (or (bvsle (bvadd (_ bv63 6) (sc_s 4)) n) (= ?x7318 ?x5397)))))
 ))
 (let ((?x8925 (used_gas_s x_0 x_1 x_2 x_3 5)))
 (let (($x64 (exc_halt_s 4)))
 (let (($x10530 (= $x64 (or (exc_halt_s 3) (not (bvsle (_ bv0 6) (bvadd (_ bv60 6) (sc_s 3))))))))
 (let (($x657 (forall ((w (_ BitVec 256)) )(let ((?x504 (storage_s x_0 x_1 x_2 x_3 3 w)))
 (let ((?x11267 (storage_s x_0 x_1 x_2 x_3 4 w)))
 (= ?x11267 ?x504))))
 ))
 (let (($x8525 (forall ((n (_ BitVec 6)) )(let ((?x5740 (stack_s x_0 x_1 x_2 x_3 3 n)))
 (let ((?x5397 (stack_s x_0 x_1 x_2 x_3 4 n)))
 (or (bvsle (bvadd (_ bv60 6) (sc_s 3)) n) (= ?x5397 ?x5740)))))
 ))
 (let ((?x275 (sc_s 3)))
 (let ((?x4305 (sc_s 4)))
 (let (($x7998 (= ?x4305 ?x275)))
 (let ((?x5714 (used_gas_s x_0 x_1 x_2 x_3 4)))
 (let (($x2631 (= (stack_s x_0 x_1 x_2 x_3 4 (bvadd (_ bv62 6) ?x4305)) (stack_s x_0 x_1 x_2 x_3 3 (bvadd (_ bv62 6) ?x275)))))
 (let (($x2972 (= (stack_s x_0 x_1 x_2 x_3 4 (bvadd (_ bv61 6) ?x4305)) (stack_s x_0 x_1 x_2 x_3 3 (bvadd (_ bv61 6) ?x275)))))
 (let (($x5847 (= (stack_s x_0 x_1 x_2 x_3 4 (bvadd (_ bv60 6) ?x4305)) (stack_s x_0 x_1 x_2 x_3 3 (bvadd (_ bv63 6) ?x275)))))
 (let (($x8220 (= (stack_s x_0 x_1 x_2 x_3 4 (bvadd (_ bv63 6) ?x4305)) (stack_s x_0 x_1 x_2 x_3 3 (bvadd (_ bv60 6) ?x275)))))
 (let (($x292 (exc_halt_s 3)))
 (let (($x10045 (= $x292 (or (exc_halt_s 2) (not (bvsle (_ bv0 6) (bvadd (_ bv63 6) (sc_s 2))))))))
 (let (($x4327 (forall ((w (_ BitVec 256)) )(let ((?x9465 (storage_s x_0 x_1 x_2 x_3 2 w)))
 (let ((?x504 (storage_s x_0 x_1 x_2 x_3 3 w)))
 (= ?x504 ?x9465))))
 ))
 (let (($x3635 (forall ((n (_ BitVec 6)) )(let ((?x218 (sc_s 2)))
 (let ((?x1185 (bvadd (_ bv63 6) ?x218)))
 (let (($x7743 (bvsle ?x1185 n)))
 (let ((?x2013 (stack_s x_0 x_1 x_2 x_3 2 n)))
 (let ((?x5740 (stack_s x_0 x_1 x_2 x_3 3 n)))
 (or (= ?x5740 ?x2013) $x7743)))))))
 ))
 (let ((?x3359 (used_gas_s x_0 x_1 x_2 x_3 3)))
 (let (($x247 (exc_halt_s 2)))
 (let (($x9391 (= $x247 (or (exc_halt_s 1) (not (bvsle (_ bv0 6) (bvadd (_ bv60 6) (sc_s 1))))))))
 (let (($x870 (forall ((w (_ BitVec 256)) )(let ((?x7657 (storage_s x_0 x_1 x_2 x_3 1 w)))
 (let ((?x9465 (storage_s x_0 x_1 x_2 x_3 2 w)))
 (= ?x9465 ?x7657))))
 ))
 (let (($x6341 (forall ((n (_ BitVec 6)) )(let ((?x5793 (stack_s x_0 x_1 x_2 x_3 1 n)))
 (let ((?x2013 (stack_s x_0 x_1 x_2 x_3 2 n)))
 (or (bvsle (bvadd (_ bv60 6) (sc_s 1)) n) (= ?x2013 ?x5793)))))
 ))
 (let ((?x154 (sc_s 1)))
 (let ((?x218 (sc_s 2)))
 (let (($x10550 (= ?x218 ?x154)))
 (let ((?x7503 (used_gas_s x_0 x_1 x_2 x_3 2)))
 (let (($x8970 (= (stack_s x_0 x_1 x_2 x_3 2 (bvadd (_ bv62 6) ?x218)) (stack_s x_0 x_1 x_2 x_3 1 (bvadd (_ bv62 6) ?x154)))))
 (let (($x9547 (= (stack_s x_0 x_1 x_2 x_3 2 (bvadd (_ bv61 6) ?x218)) (stack_s x_0 x_1 x_2 x_3 1 (bvadd (_ bv61 6) ?x154)))))
 (let ((?x917 (bvadd (_ bv63 6) ?x154)))
 (let ((?x2244 (stack_s x_0 x_1 x_2 x_3 1 ?x917)))
 (let (($x3691 (= (stack_s x_0 x_1 x_2 x_3 2 (bvadd (_ bv63 6) ?x218)) (stack_s x_0 x_1 x_2 x_3 1 (bvadd (_ bv60 6) ?x154)))))
 (let (($x6924 (not (bvsle (_ bv0 6) (bvadd (_ bv63 6) ?x72)))))
 (let (($x3651 (not (= ((_ extract 6 6) (bvadd (_ bv1 7) (concat (_ bv0 1) ?x72))) (_ bv0 1)))))
 (let (($x189 (exc_halt_s 1)))
 (let (($x6704 (forall ((w (_ BitVec 256)) )(let ((?x9707 (storage_s x_0 x_1 x_2 x_3 0 w)))
 (let ((?x7657 (storage_s x_0 x_1 x_2 x_3 1 w)))
 (= ?x7657 ?x9707))))
 ))
 (let (($x9031 (forall ((n (_ BitVec 6)) )(let ((?x8572 (stack_s x_0 x_1 x_2 x_3 0 n)))
 (let ((?x5793 (stack_s x_0 x_1 x_2 x_3 1 n)))
 (let ((?x72 (sc_s 0)))
 (let ((?x11623 (bvadd (_ bv63 6) ?x72)))
 (let (($x2975 (bvsle ?x11623 n)))
 (or $x2975 (= ?x5793 ?x8572))))))))
 ))
 (let (($x5350 (= ?x154 (bvadd (_ bv1 6) ?x72))))
 (let ((?x11623 (bvadd (_ bv63 6) ?x72)))
 (let ((?x906 (stack_s x_0 x_1 x_2 x_3 0 ?x11623)))
 (let (($x3722 (forall ((w (_ BitVec 256)) )(let ((?x9707 (storage_s x_0 x_1 x_2 x_3 0 w)))
 (= ?x9707 (_ bv0 256))))
 ))
 (let (($x6026 (= ?x905 0)))
 (let (($x1898 (not $x57)))
 (let (($x10667 (= (stack_s x_0 x_1 x_2 x_3 0 (_ bv3 6)) x_3)))
 (let (($x8904 (= (stack_s x_0 x_1 x_2 x_3 0 (_ bv2 6)) x_2)))
 (let (($x3369 (= (stack_s x_0 x_1 x_2 x_3 0 (_ bv1 6)) x_1)))
 (let (($x4140 (= (stack_s x_0 x_1 x_2 x_3 0 (_ bv0 6)) x_0)))
 (let (($x5868 (= ?x72 (_ bv4 6))))
 (and $x5868 $x4140 $x3369 $x8904 $x10667 $x1898 $x6026 $x3722 (= ?x2244 ?x906) (= (stack_s x_0 x_1 x_2 x_3 1 ?x11623) ?x906) (= (used_gas_s x_0 x_1 x_2 x_3 1) (+ 3 ?x905)) $x5350 $x9031 $x6704 (= $x189 (or $x57 $x3651 $x6924)) $x3691 (= (stack_s x_0 x_1 x_2 x_3 2 (bvadd (_ bv60 6) ?x218)) ?x2244) $x9547 $x8970 (= ?x7503 (+ 3 (used_gas_s x_0 x_1 x_2 x_3 1))) $x10550 $x6341 $x870 $x9391 (= ?x3359 (+ 2 ?x7503)) (= ?x275 (bvadd (_ bv63 6) ?x218)) $x3635 $x4327 $x10045 $x8220 $x5847 $x2972 $x2631 (= ?x5714 (+ 3 ?x3359)) $x7998 $x8525 $x657 $x10530 (= ?x8925 (+ 2 ?x5714)) (= (sc_s 5) (bvadd (_ bv63 6) ?x4305)) $x8193 $x9122 $x6362 $x6242 (= ?x926 (bvadd (_ bv63 6) (sc_s 5))) $x8488 $x9231 $x10115 (= ?x1559 (stack_t x_0 x_1 x_2 x_3 0 (bvadd (_ bv60 6) ?x63))) $x7780 $x9712 (= ?x30 (stack_t x_0 x_1 x_2 x_3 0 (bvadd (_ bv62 6) ?x63))) (= (used_gas_t x_0 x_1 x_2 x_3 1) (+ 3 ?x6644)) (= ?x4023 ?x63) $x9872 $x10014 (= (exc_halt_t 1) (or $x56 (not (bvsle (_ bv0 6) (bvadd (_ bv60 6) ?x63))))) (= ?x2978 (ite (bvule ?x30 ?x1559) (_ bv0 256) (_ bv1 256))) (= ?x9006 (+ 3 (used_gas_t x_0 x_1 x_2 x_3 1))) (= ?x4056 ?x6175) $x2446 $x4571 $x3604 $x9185 (= ?x2681 (+ 3 ?x9006)) (= (sc_t 3) ?x5207) $x10388 $x1141 $x10178 (= ?x8880 (+ 2 ?x2681)) (= ?x3757 (bvadd (_ bv63 6) (sc_t 3))) $x7405 $x5613 $x10208 (= (stack_t x_0 x_1 x_2 x_3 5 (bvadd (_ bv63 6) ?x919)) ?x7493) (= (stack_t x_0 x_1 x_2 x_3 5 ?x4637) ?x7493) $x6494 (= ?x919 (bvadd (_ bv1 6) ?x3757)) $x1551 $x7445 (= $x886 $x755) $x73 $x1782 $x58 $x5773 $x7473 (not (and $x929 $x1515 $x889 $x593))))))))))))))))))))))))))))))))))))))))))))))))))))))))))))))))))))))))))))))))))))))))))))))))))))))))))))))))))
 )
(check-sat)
(get-proof)
